; bank-full.csv → SMT-LIB2 (data only)
; D[row][col] = encoded feature value

(declare-const D (Array Int (Array Int Int)))

(define-fun m () Int 100)
(define-fun n () Int 17)

; Feature order:
;   0: age
;   1: job
;   2: marital
;   3: education
;   4: default
;   5: balance
;   6: housing
;   7: loan
;   8: contact
;   9: day
;   10: month
;   11: duration
;   12: campaign
;   13: pdays
;   14: previous
;   15: poutcome
;   16: y

(define-fun row17 ((x0 Int) (x1 Int) (x2 Int) (x3 Int) (x4 Int) (x5 Int) (x6 Int) (x7 Int) (x8 Int) (x9 Int) (x10 Int) (x11 Int) (x12 Int) (x13 Int) (x14 Int) (x15 Int) (x16 Int)) (Array Int Int)
  (store (store (store (store (store (store (store (store (store (store (store (store (store (store (store (store (store ((as const (Array Int Int)) 0) 0 x0) 1 x1) 2 x2) 3 x3) 4 x4) 5 x5) 6 x6) 7 x7) 8 x8) 9 x9) 10 x10) 11 x11) 12 x12) 13 x13) 14 x14) 15 x15) 16 x16)
)

(assert (= (select D 0) (row17 58 0 0 0 0 2143 0 0 0 5 0 261 1 -1 0 0 0)))
(assert (= (select D 1) (row17 44 1 1 1 0 29 0 0 0 5 0 151 1 -1 0 0 0)))
(assert (= (select D 2) (row17 33 2 0 1 0 2 0 1 0 5 0 76 1 -1 0 0 0)))
(assert (= (select D 3) (row17 47 3 0 2 0 1506 0 0 0 5 0 92 1 -1 0 0 0)))
(assert (= (select D 4) (row17 33 4 1 2 0 1 1 0 0 5 0 198 1 -1 0 0 0)))
(assert (= (select D 5) (row17 35 0 0 0 0 231 0 0 0 5 0 139 1 -1 0 0 0)))
(assert (= (select D 6) (row17 28 0 1 0 0 447 0 1 0 5 0 217 1 -1 0 0 0)))
(assert (= (select D 7) (row17 42 2 2 0 1 2 0 0 0 5 0 380 1 -1 0 0 0)))
(assert (= (select D 8) (row17 58 5 0 3 0 121 0 0 0 5 0 50 1 -1 0 0 0)))
(assert (= (select D 9) (row17 43 1 1 1 0 593 0 0 0 5 0 55 1 -1 0 0 0)))
(assert (= (select D 10) (row17 41 6 2 1 0 270 0 0 0 5 0 222 1 -1 0 0 0)))
(assert (= (select D 11) (row17 29 6 1 1 0 390 0 0 0 5 0 137 1 -1 0 0 0)))
(assert (= (select D 12) (row17 53 1 0 1 0 6 0 0 0 5 0 517 1 -1 0 0 0)))
(assert (= (select D 13) (row17 58 1 0 2 0 71 0 0 0 5 0 71 1 -1 0 0 0)))
(assert (= (select D 14) (row17 57 7 0 1 0 162 0 0 0 5 0 174 1 -1 0 0 0)))
(assert (= (select D 15) (row17 51 5 0 3 0 229 0 0 0 5 0 353 1 -1 0 0 0)))
(assert (= (select D 16) (row17 45 6 1 2 0 13 0 0 0 5 0 98 1 -1 0 0 0)))
(assert (= (select D 17) (row17 57 3 0 3 0 52 0 0 0 5 0 38 1 -1 0 0 0)))
(assert (= (select D 18) (row17 60 5 0 3 0 60 0 0 0 5 0 219 1 -1 0 0 0)))
(assert (= (select D 19) (row17 33 7 0 1 0 0 0 0 0 5 0 54 1 -1 0 0 0)))
(assert (= (select D 20) (row17 28 3 0 1 0 723 0 1 0 5 0 262 1 -1 0 0 0)))
(assert (= (select D 21) (row17 56 0 0 0 0 779 0 0 0 5 0 164 1 -1 0 0 0)))
(assert (= (select D 22) (row17 32 3 1 3 0 23 0 1 0 5 0 160 1 -1 0 0 0)))
(assert (= (select D 23) (row17 25 7 0 1 0 50 0 0 0 5 0 342 1 -1 0 0 0)))
(assert (= (select D 24) (row17 40 5 0 3 0 0 0 1 0 5 0 181 1 -1 0 0 0)))
(assert (= (select D 25) (row17 44 6 0 1 0 -372 0 0 0 5 0 172 1 -1 0 0 0)))
(assert (= (select D 26) (row17 39 0 1 0 0 255 0 0 0 5 0 296 1 -1 0 0 0)))
(assert (= (select D 27) (row17 52 2 0 1 0 113 0 1 0 5 0 127 1 -1 0 0 0)))
(assert (= (select D 28) (row17 46 0 1 1 0 -246 0 0 0 5 0 255 2 -1 0 0 0)))
(assert (= (select D 29) (row17 36 1 1 1 0 265 0 1 0 5 0 348 1 -1 0 0 0)))
(assert (= (select D 30) (row17 57 1 0 1 0 839 1 1 0 5 0 225 1 -1 0 0 0)))
(assert (= (select D 31) (row17 49 0 0 0 0 378 0 0 0 5 0 230 1 -1 0 0 0)))
(assert (= (select D 32) (row17 60 6 0 1 0 39 0 1 0 5 0 208 1 -1 0 0 0)))
(assert (= (select D 33) (row17 59 3 0 1 0 0 0 0 0 5 0 226 1 -1 0 0 0)))
(assert (= (select D 34) (row17 51 0 0 0 0 10635 0 0 0 5 0 336 1 -1 0 0 0)))
(assert (= (select D 35) (row17 57 1 2 1 0 63 0 0 0 5 0 242 1 -1 0 0 0)))
(assert (= (select D 36) (row17 25 3 0 1 0 -7 0 0 0 5 0 365 1 -1 0 0 0)))
(assert (= (select D 37) (row17 53 1 0 1 0 -3 1 0 0 5 0 1666 1 -1 0 0 0)))
(assert (= (select D 38) (row17 36 6 2 1 0 506 0 0 0 5 0 577 1 -1 0 0 0)))
(assert (= (select D 39) (row17 37 6 1 1 0 0 0 0 0 5 0 137 1 -1 0 0 0)))
(assert (= (select D 40) (row17 44 7 2 1 0 2586 0 0 0 5 0 160 1 -1 0 0 0)))
(assert (= (select D 41) (row17 50 0 0 1 0 49 0 0 0 5 0 180 2 -1 0 0 0)))
(assert (= (select D 42) (row17 60 3 0 2 0 104 0 0 0 5 0 22 1 -1 0 0 0)))
(assert (= (select D 43) (row17 54 5 0 1 0 529 0 0 0 5 0 1492 1 -1 0 0 0)))
(assert (= (select D 44) (row17 58 5 0 2 0 96 0 0 0 5 0 616 1 -1 0 0 0)))
(assert (= (select D 45) (row17 36 6 1 3 0 -171 0 0 0 5 0 242 1 -1 0 0 0)))
(assert (= (select D 46) (row17 58 8 0 0 0 -364 0 0 0 5 0 355 1 -1 0 0 0)))
(assert (= (select D 47) (row17 44 1 0 1 0 0 0 0 0 5 0 225 2 -1 0 0 0)))
(assert (= (select D 48) (row17 55 1 2 1 0 0 1 0 0 5 0 160 1 -1 0 0 0)))
(assert (= (select D 49) (row17 29 0 1 0 0 0 0 0 0 5 0 363 1 -1 0 0 0)))
(assert (= (select D 50) (row17 54 3 0 1 0 1291 0 0 0 5 0 266 1 -1 0 0 0)))
(assert (= (select D 51) (row17 48 0 2 0 0 -244 0 0 0 5 0 253 1 -1 0 0 0)))
(assert (= (select D 52) (row17 32 0 0 0 0 0 0 0 0 5 0 179 1 -1 0 0 0)))
(assert (= (select D 53) (row17 42 6 1 1 0 -76 0 0 0 5 0 787 1 -1 0 0 0)))
(assert (= (select D 54) (row17 24 1 1 1 0 -103 0 1 0 5 0 145 1 -1 0 0 0)))
(assert (= (select D 55) (row17 38 2 1 0 0 243 1 1 0 5 0 174 1 -1 0 0 0)))
(assert (= (select D 56) (row17 38 0 1 0 0 424 0 0 0 5 0 104 1 -1 0 0 0)))
(assert (= (select D 57) (row17 47 3 0 2 0 306 0 0 0 5 0 13 1 -1 0 0 0)))
(assert (= (select D 58) (row17 40 3 1 2 0 24 0 0 0 5 0 185 1 -1 0 0 0)))
(assert (= (select D 59) (row17 46 7 0 3 0 179 0 0 0 5 0 1778 1 -1 0 0 0)))
(assert (= (select D 60) (row17 32 6 0 0 0 0 0 0 0 5 0 138 1 -1 0 0 0)))
(assert (= (select D 61) (row17 53 1 2 1 0 989 0 0 0 5 0 812 1 -1 0 0 0)))
(assert (= (select D 62) (row17 57 3 0 3 0 249 0 0 0 5 0 164 1 -1 0 0 0)))
(assert (= (select D 63) (row17 33 7 0 1 0 790 0 0 0 5 0 391 1 -1 0 0 0)))
(assert (= (select D 64) (row17 49 3 0 2 0 154 0 0 0 5 0 357 1 -1 0 0 0)))
(assert (= (select D 65) (row17 51 0 0 0 0 6530 0 0 0 5 0 91 1 -1 0 0 0)))
(assert (= (select D 66) (row17 60 5 0 0 0 100 1 0 0 5 0 528 1 -1 0 0 0)))
(assert (= (select D 67) (row17 59 0 2 0 0 59 0 0 0 5 0 273 1 -1 0 0 0)))
(assert (= (select D 68) (row17 55 1 0 1 0 1205 0 0 0 5 0 158 2 -1 0 0 0)))
(assert (= (select D 69) (row17 35 3 1 1 0 12223 0 1 0 5 0 177 1 -1 0 0 0)))
(assert (= (select D 70) (row17 57 3 0 1 0 5935 0 1 0 5 0 258 1 -1 0 0 0)))
(assert (= (select D 71) (row17 31 7 0 1 0 25 0 1 0 5 0 172 1 -1 0 0 0)))
(assert (= (select D 72) (row17 54 0 0 1 0 282 0 1 0 5 0 154 1 -1 0 0 0)))
(assert (= (select D 73) (row17 55 3 0 3 0 23 0 0 0 5 0 291 1 -1 0 0 0)))
(assert (= (select D 74) (row17 43 1 0 1 0 1937 0 0 0 5 0 181 1 -1 0 0 0)))
(assert (= (select D 75) (row17 53 1 0 1 0 384 0 0 0 5 0 176 1 -1 0 0 0)))
(assert (= (select D 76) (row17 44 3 0 1 0 582 1 1 0 5 0 211 1 -1 0 0 0)))
(assert (= (select D 77) (row17 55 7 2 1 0 91 1 0 0 5 0 349 1 -1 0 0 0)))
(assert (= (select D 78) (row17 49 7 2 1 0 0 0 1 0 5 0 272 1 -1 0 0 0)))
(assert (= (select D 79) (row17 55 7 2 1 1 1 0 0 0 5 0 208 1 -1 0 0 0)))
(assert (= (select D 80) (row17 45 6 1 1 0 206 0 0 0 5 0 193 1 -1 0 0 0)))
(assert (= (select D 81) (row17 47 7 2 1 0 164 1 0 0 5 0 212 1 -1 0 0 0)))
(assert (= (select D 82) (row17 42 1 1 1 0 690 0 0 0 5 0 20 1 -1 0 0 0)))
(assert (= (select D 83) (row17 59 6 0 1 0 2343 0 0 0 5 0 1042 1 -1 0 0 1)))
(assert (= (select D 84) (row17 46 8 0 0 0 137 0 1 0 5 0 246 1 -1 0 0 0)))
(assert (= (select D 85) (row17 51 3 0 3 0 173 0 0 0 5 0 529 2 -1 0 0 0)))
(assert (= (select D 86) (row17 56 6 0 1 0 45 1 0 0 5 0 1467 1 -1 0 0 1)))
(assert (= (select D 87) (row17 41 1 0 1 0 1270 0 0 0 5 0 1389 1 -1 0 0 1)))
(assert (= (select D 88) (row17 46 0 2 1 0 16 0 1 0 5 0 188 2 -1 0 0 0)))
(assert (= (select D 89) (row17 57 5 0 1 0 486 0 0 0 5 0 180 2 -1 0 0 0)))
(assert (= (select D 90) (row17 42 0 1 1 0 50 1 0 0 5 0 48 1 -1 0 0 0)))
(assert (= (select D 91) (row17 30 1 0 1 0 152 0 1 0 5 0 213 2 -1 0 0 0)))
(assert (= (select D 92) (row17 60 6 0 1 0 290 0 0 0 5 0 583 1 -1 0 0 0)))
(assert (= (select D 93) (row17 60 3 0 2 0 54 0 0 0 5 0 221 1 -1 0 0 0)))
(assert (= (select D 94) (row17 57 2 2 1 0 -37 1 0 0 5 0 173 1 -1 0 0 0)))
(assert (= (select D 95) (row17 36 0 0 0 0 101 0 1 0 5 0 426 1 -1 0 0 0)))
(assert (= (select D 96) (row17 55 3 0 1 0 383 1 0 0 5 0 287 1 -1 0 0 0)))
(assert (= (select D 97) (row17 60 5 0 0 0 81 0 0 0 5 0 101 1 -1 0 0 0)))
(assert (= (select D 98) (row17 39 1 0 1 0 0 0 0 0 5 0 203 1 -1 0 0 0)))
(assert (= (select D 99) (row17 46 0 0 0 0 229 0 0 0 5 0 197 1 -1 0 0 0)))


; ======================================
; Unrolled local range validity (m=100)
; Property: 0 <= duration < 5000
; Column index: 11 (duration)
; ======================================

(assert
  (and
    (and (>= (select (select D 0) 11) 0) (<  (select (select D 0) 11) 5000))
    (and (>= (select (select D 1) 11) 0) (<  (select (select D 1) 11) 5000))
    (and (>= (select (select D 2) 11) 0) (<  (select (select D 2) 11) 5000))
    (and (>= (select (select D 3) 11) 0) (<  (select (select D 3) 11) 5000))
    (and (>= (select (select D 4) 11) 0) (<  (select (select D 4) 11) 5000))
    (and (>= (select (select D 5) 11) 0) (<  (select (select D 5) 11) 5000))
    (and (>= (select (select D 6) 11) 0) (<  (select (select D 6) 11) 5000))
    (and (>= (select (select D 7) 11) 0) (<  (select (select D 7) 11) 5000))
    (and (>= (select (select D 8) 11) 0) (<  (select (select D 8) 11) 5000))
    (and (>= (select (select D 9) 11) 0) (<  (select (select D 9) 11) 5000))
    (and (>= (select (select D 10) 11) 0) (<  (select (select D 10) 11) 5000))
    (and (>= (select (select D 11) 11) 0) (<  (select (select D 11) 11) 5000))
    (and (>= (select (select D 12) 11) 0) (<  (select (select D 12) 11) 5000))
    (and (>= (select (select D 13) 11) 0) (<  (select (select D 13) 11) 5000))
    (and (>= (select (select D 14) 11) 0) (<  (select (select D 14) 11) 5000))
    (and (>= (select (select D 15) 11) 0) (<  (select (select D 15) 11) 5000))
    (and (>= (select (select D 16) 11) 0) (<  (select (select D 16) 11) 5000))
    (and (>= (select (select D 17) 11) 0) (<  (select (select D 17) 11) 5000))
    (and (>= (select (select D 18) 11) 0) (<  (select (select D 18) 11) 5000))
    (and (>= (select (select D 19) 11) 0) (<  (select (select D 19) 11) 5000))
    (and (>= (select (select D 20) 11) 0) (<  (select (select D 20) 11) 5000))
    (and (>= (select (select D 21) 11) 0) (<  (select (select D 21) 11) 5000))
    (and (>= (select (select D 22) 11) 0) (<  (select (select D 22) 11) 5000))
    (and (>= (select (select D 23) 11) 0) (<  (select (select D 23) 11) 5000))
    (and (>= (select (select D 24) 11) 0) (<  (select (select D 24) 11) 5000))
    (and (>= (select (select D 25) 11) 0) (<  (select (select D 25) 11) 5000))
    (and (>= (select (select D 26) 11) 0) (<  (select (select D 26) 11) 5000))
    (and (>= (select (select D 27) 11) 0) (<  (select (select D 27) 11) 5000))
    (and (>= (select (select D 28) 11) 0) (<  (select (select D 28) 11) 5000))
    (and (>= (select (select D 29) 11) 0) (<  (select (select D 29) 11) 5000))
    (and (>= (select (select D 30) 11) 0) (<  (select (select D 30) 11) 5000))
    (and (>= (select (select D 31) 11) 0) (<  (select (select D 31) 11) 5000))
    (and (>= (select (select D 32) 11) 0) (<  (select (select D 32) 11) 5000))
    (and (>= (select (select D 33) 11) 0) (<  (select (select D 33) 11) 5000))
    (and (>= (select (select D 34) 11) 0) (<  (select (select D 34) 11) 5000))
    (and (>= (select (select D 35) 11) 0) (<  (select (select D 35) 11) 5000))
    (and (>= (select (select D 36) 11) 0) (<  (select (select D 36) 11) 5000))
    (and (>= (select (select D 37) 11) 0) (<  (select (select D 37) 11) 5000))
    (and (>= (select (select D 38) 11) 0) (<  (select (select D 38) 11) 5000))
    (and (>= (select (select D 39) 11) 0) (<  (select (select D 39) 11) 5000))
    (and (>= (select (select D 40) 11) 0) (<  (select (select D 40) 11) 5000))
    (and (>= (select (select D 41) 11) 0) (<  (select (select D 41) 11) 5000))
    (and (>= (select (select D 42) 11) 0) (<  (select (select D 42) 11) 5000))
    (and (>= (select (select D 43) 11) 0) (<  (select (select D 43) 11) 5000))
    (and (>= (select (select D 44) 11) 0) (<  (select (select D 44) 11) 5000))
    (and (>= (select (select D 45) 11) 0) (<  (select (select D 45) 11) 5000))
    (and (>= (select (select D 46) 11) 0) (<  (select (select D 46) 11) 5000))
    (and (>= (select (select D 47) 11) 0) (<  (select (select D 47) 11) 5000))
    (and (>= (select (select D 48) 11) 0) (<  (select (select D 48) 11) 5000))
    (and (>= (select (select D 49) 11) 0) (<  (select (select D 49) 11) 5000))
    (and (>= (select (select D 50) 11) 0) (<  (select (select D 50) 11) 5000))
    (and (>= (select (select D 51) 11) 0) (<  (select (select D 51) 11) 5000))
    (and (>= (select (select D 52) 11) 0) (<  (select (select D 52) 11) 5000))
    (and (>= (select (select D 53) 11) 0) (<  (select (select D 53) 11) 5000))
    (and (>= (select (select D 54) 11) 0) (<  (select (select D 54) 11) 5000))
    (and (>= (select (select D 55) 11) 0) (<  (select (select D 55) 11) 5000))
    (and (>= (select (select D 56) 11) 0) (<  (select (select D 56) 11) 5000))
    (and (>= (select (select D 57) 11) 0) (<  (select (select D 57) 11) 5000))
    (and (>= (select (select D 58) 11) 0) (<  (select (select D 58) 11) 5000))
    (and (>= (select (select D 59) 11) 0) (<  (select (select D 59) 11) 5000))
    (and (>= (select (select D 60) 11) 0) (<  (select (select D 60) 11) 5000))
    (and (>= (select (select D 61) 11) 0) (<  (select (select D 61) 11) 5000))
    (and (>= (select (select D 62) 11) 0) (<  (select (select D 62) 11) 5000))
    (and (>= (select (select D 63) 11) 0) (<  (select (select D 63) 11) 5000))
    (and (>= (select (select D 64) 11) 0) (<  (select (select D 64) 11) 5000))
    (and (>= (select (select D 65) 11) 0) (<  (select (select D 65) 11) 5000))
    (and (>= (select (select D 66) 11) 0) (<  (select (select D 66) 11) 5000))
    (and (>= (select (select D 67) 11) 0) (<  (select (select D 67) 11) 5000))
    (and (>= (select (select D 68) 11) 0) (<  (select (select D 68) 11) 5000))
    (and (>= (select (select D 69) 11) 0) (<  (select (select D 69) 11) 5000))
    (and (>= (select (select D 70) 11) 0) (<  (select (select D 70) 11) 5000))
    (and (>= (select (select D 71) 11) 0) (<  (select (select D 71) 11) 5000))
    (and (>= (select (select D 72) 11) 0) (<  (select (select D 72) 11) 5000))
    (and (>= (select (select D 73) 11) 0) (<  (select (select D 73) 11) 5000))
    (and (>= (select (select D 74) 11) 0) (<  (select (select D 74) 11) 5000))
    (and (>= (select (select D 75) 11) 0) (<  (select (select D 75) 11) 5000))
    (and (>= (select (select D 76) 11) 0) (<  (select (select D 76) 11) 5000))
    (and (>= (select (select D 77) 11) 0) (<  (select (select D 77) 11) 5000))
    (and (>= (select (select D 78) 11) 0) (<  (select (select D 78) 11) 5000))
    (and (>= (select (select D 79) 11) 0) (<  (select (select D 79) 11) 5000))
    (and (>= (select (select D 80) 11) 0) (<  (select (select D 80) 11) 5000))
    (and (>= (select (select D 81) 11) 0) (<  (select (select D 81) 11) 5000))
    (and (>= (select (select D 82) 11) 0) (<  (select (select D 82) 11) 5000))
    (and (>= (select (select D 83) 11) 0) (<  (select (select D 83) 11) 5000))
    (and (>= (select (select D 84) 11) 0) (<  (select (select D 84) 11) 5000))
    (and (>= (select (select D 85) 11) 0) (<  (select (select D 85) 11) 5000))
    (and (>= (select (select D 86) 11) 0) (<  (select (select D 86) 11) 5000))
    (and (>= (select (select D 87) 11) 0) (<  (select (select D 87) 11) 5000))
    (and (>= (select (select D 88) 11) 0) (<  (select (select D 88) 11) 5000))
    (and (>= (select (select D 89) 11) 0) (<  (select (select D 89) 11) 5000))
    (and (>= (select (select D 90) 11) 0) (<  (select (select D 90) 11) 5000))
    (and (>= (select (select D 91) 11) 0) (<  (select (select D 91) 11) 5000))
    (and (>= (select (select D 92) 11) 0) (<  (select (select D 92) 11) 5000))
    (and (>= (select (select D 93) 11) 0) (<  (select (select D 93) 11) 5000))
    (and (>= (select (select D 94) 11) 0) (<  (select (select D 94) 11) 5000))
    (and (>= (select (select D 95) 11) 0) (<  (select (select D 95) 11) 5000))
    (and (>= (select (select D 96) 11) 0) (<  (select (select D 96) 11) 5000))
    (and (>= (select (select D 97) 11) 0) (<  (select (select D 97) 11) 5000))
    (and (>= (select (select D 98) 11) 0) (<  (select (select D 98) 11) 5000))
    (and (>= (select (select D 99) 11) 0) (<  (select (select D 99) 11) 5000))
  )
)

(check-sat)
